p cnf 122 285
-122 121 116 0
122 -121 0
122 -116 0
121 -120 -117 0
-121 120 0
-121 117 0
120 119 118 0
-120 -119 0
-120 -118 0
-119 -18 -17 0
119 18 0
119 17 0
16 118 0
-16 -118 0
15 117 0
-15 -117 0
116 -15 -115 0
-116 15 0
-116 115 0
120 115 0
-120 -115 0
-114 113 111 0
114 -113 0
114 -111 0
113 -18 -112 0
-113 18 0
-113 112 0
16 112 0
-16 -112 0
111 -16 -110 0
-111 16 0
-111 110 0
18 110 0
-18 -110 0
-109 108 102 0
109 -108 0
109 -102 0
108 -14 -107 0
-108 14 0
-108 107 0
106 107 0
-106 -107 0
106 -105 -16 0
-106 105 0
-106 16 0
105 119 104 103 0
-105 -119 0
-105 -104 0
-105 -103 0
13 104 0
-13 -104 0
15 103 0
-15 -103 0
102 -106 -101 0
-102 106 0
-102 101 0
14 101 0
-14 -101 0
-100 99 52 0
100 -99 0
100 -52 0
-99 98 78 0
99 -98 0
99 -78 0
-98 -97 -87 -83 0
98 97 0
98 87 0
98 83 0
-97 96 88 0
97 -96 0
97 -88 0
95 96 0
-95 -96 0
95 94 93 0
-95 -94 0
-95 -93 0
15 94 0
-15 -94 0
-93 -92 -89 0
93 92 0
93 89 0
91 92 0
-91 -92 0
-91 -90 -16 0
91 90 0
91 16 0
18 90 0
-18 -90 0
17 89 0
-17 -89 0
12 88 0
-12 -88 0
-87 86 84 0
87 -86 0
87 -84 0
85 86 0
-85 -86 0
85 89 91 0
-85 -89 0
-85 -91 0
11 84 0
-11 -84 0
83 82 79 0
-83 -82 0
-83 -79 0
82 -81 -10 0
-82 81 0
-82 10 0
81 80 90 0
-81 -80 0
-81 -90 0
16 80 0
-16 -80 0
79 -16 -9 0
-79 16 0
-79 9 0
-78 -77 -65 -60 0
78 77 0
78 65 0
78 60 0
-77 76 66 0
77 -76 0
77 -66 0
75 76 0
-75 -76 0
75 -74 -73 0
-75 74 0
-75 73 0
74 13 17 15 18 0
-74 -13 0
-74 -17 0
-74 -15 0
-74 -18 0
73 72 71 0
-73 -72 0
-73 -71 0
8 72 0
-8 -72 0
-71 -70 -67 0
71 70 0
71 67 0
69 70 0
-69 -70 0
-69 -68 -16 0
69 68 0
69 16 0
14 68 0
-14 -68 0
7 67 0
-7 -67 0
6 66 0
-6 -66 0
-65 64 61 0
65 -64 0
65 -61 0
63 64 0
-63 -64 0
63 -74 -62 0
-63 74 0
-63 62 0
62 67 69 0
-62 -67 0
-62 -69 0
5 61 0
-5 -61 0
60 59 55 0
-60 -59 0
-60 -55 0
59 -58 -4 0
-59 58 0
-59 4 0
58 -74 -57 0
-58 74 0
-58 57 0
57 56 68 0
-57 -56 0
-57 -68 0
16 56 0
-16 -56 0
55 -54 -3 0
-55 54 0
-55 3 0
54 15 93 53 0
-54 -15 0
-54 -93 0
-54 -53 0
13 53 0
-13 -53 0
52 -51 -1 0
-52 51 0
-52 1 0
51 -74 -50 0
-51 74 0
-51 50 0
50 8 71 49 0
-50 -8 0
-50 -71 0
-50 -49 0
2 49 0
-2 -49 0
-48 -47 -45 0
48 47 0
48 45 0
-47 46 13 103 0
47 -46 0
47 -13 0
47 -103 0
120 46 0
-120 -46 0
-45 -44 -13 0
45 44 0
45 13 0
-44 119 103 118 0
44 -119 0
44 -103 0
44 -118 0
-43 -42 -37 0
43 42 0
43 37 0
-42 41 2 38 0
42 -41 0
42 -2 0
42 -38 0
-41 -40 -7 0
41 40 0
41 7 0
39 40 0
-39 -40 0
-39 -14 -106 0
39 14 0
39 106 0
8 38 0
-8 -38 0
-37 -36 -2 0
37 36 0
37 2 0
-36 39 35 38 0
36 -39 0
36 -35 0
36 -38 0
7 35 0
-7 -35 0
-34 -33 -32 0
34 33 0
34 32 0
-33 41 8 0
33 -41 0
33 -8 0
31 32 0
-31 -32 0
31 38 30 0
-31 -38 0
-31 -30 0
30 -40 -7 0
-30 40 0
-30 7 0
29 28 25 0
-29 -28 0
-29 -25 0
28 -27 -26 0
-28 27 0
-28 26 0
-27 -18 -16 0
27 18 0
27 16 0
17 26 0
-17 -26 0
25 -17 -24 0
-25 17 0
-25 24 0
27 24 0
-27 -24 0
23 22 20 0
-23 -22 0
-23 -20 0
22 -39 -21 0
-22 39 0
-22 21 0
7 21 0
-7 -21 0
20 -7 -19 0
-20 7 0
-20 19 0
39 19 0
-39 -19 0
